c --- [ banner ] -------------------------------------------------------------
c 
c CaDiCaL Radically Simplified CDCL SAT Solver
c Copyright (c) 2016-2021 A. Biere, M. Fleury, N. Froleyks
c 
c Version 1.5.2 a5f15211db36c3956764e18194dd5bd63bf3b5e6
c g++ (GCC) 9.3.0 -Wall -Wextra -O3 -DNDEBUG
c Fri Oct 21 01:27:37 EDT 2022 Linux gra-login3 3.10.0-1160.66.1.el7.x86_64 x86_64
c 
c --- [ limit ] --------------------------------------------------------------
c 
c setting conflict limit to 200000 conflicts (due to '200000')
c 
c --- [ parsing input ] ------------------------------------------------------
c 
c reading DIMACS file from '33.cubes2295.adj'
c opening file to read '33.cubes2295.adj'
c found 'p cnf 6160 1595478' header
c parsed 1595478 clauses in 17.47 seconds process time
c closing file '33.cubes2295.adj'
c after reading 1457566795 bytes 1390.0 MB
c 
c --- [ options ] ------------------------------------------------------------
c 
c all options are set to their default value
c 
c --- [ solving ] ------------------------------------------------------------
c 
c time measured in process time since initialization
c 
c  seconds    reductions  redundant   irredundant
c          MB     restarts       trail       variables
c            level   conflicts       glue         remaining
c 
c * 17.47 1379  0 0   0    0    0  0% 0 1595422 2486 40%
c { 17.99 1406  0 0   0    0    0  0% 0 1595422 2486 40%
c i 19.44 1469 1003 0   0   25   24 35% 1 1595422 2429 39%
c i 22.04 1501 390 0  16   93   74 28% 20 1595422 2405 39%
c i 22.40 1503 371 0  19  107   87 27% 31 1595422 2376 39%
c i 22.52 1504 365 0  20  112   90 27% 30 1595422 2375 39%
c i 22.63 1504 352 0  22  119   93 27% 29 1595422 2373 39%
c i 22.67 1505 351 0  23  120   93 27% 29 1595422 2372 39%
c i 23.07 1506 343 0  25  132  104 27% 37 1595422 2371 38%
c i 23.25 1508 329 0  28  143  110 27% 40 1595422 2370 38%
c i 23.37 1509 325 0  28  146  112 27% 40 1595422 2369 38%
c i 23.57 1509 261 0  39  188  139 28% 38 1595422 2368 38%
c i 23.61 1509 258 0  39  190  140 28% 38 1595422 2367 38%
c - 27.30 1430 174 1  39  300  213 29% 32 277811 2367 38%
c i 27.74 1430 117 1  39  482  331 29% 26 277811 2366 38%
c } 28.07 1430 66 1  39 1000  613 30% 22 277811 2366 38%
c [ 28.07 1430  0 1  39 1000  613  0% 0 277811 2366 38%
c O 28.17 1430 19 1  39 1003  615 28% 17 277811 2366 38%
c i 28.32 1430 15 1  39 1050  644 33% 14 277811 2365 38%
c i 28.33 1430 15 1  39 1051  644 33% 13 277811 2351 38%
c 
c  seconds    reductions  redundant   irredundant
c          MB     restarts       trail       variables
c            level   conflicts       glue         remaining
c 
c i 28.39 1430 15 1  39 1089  679 32% 14 277811 2350 38%
c i 28.49 1430 16 1  39 1165  735 31% 14 277811 2349 38%
c - 28.97 1573 16 2  39 1168  652 31% 14 277580 2348 38%
c i 29.06 1573 16 2  39 1197  673 31% 14 277580 2347 38%
c i 29.16 1573 17 2  39 1232  700 31% 15 277580 2346 38%
c i 29.19 1573 17 2  39 1243  710 31% 15 277580 2345 38%
c i 29.29 1573 19 2  39 1399  805 31% 16 277580 2344 38%
c i 29.30 1573 19 2  39 1442  834 31% 16 277580 2343 38%
c i 29.31 1573 19 2  39 1484  860 31% 16 277580 2342 38%
c i 29.36 1573 20 2  39 1503  876 31% 17 277580 2323 38%
c i 29.46 1573 20 2  39 1663  954 31% 17 277580 2322 38%
c i 29.52 1573 19 2  39 1730  987 31% 17 277580 2321 38%
c i 29.60 1573 19 2  39 1826 1037 31% 17 277580 2320 38%
c i 29.62 1573 20 2  39 1863 1066 31% 17 277580 2319 38%
c i 30.31 1485 21 2  40 2078 1206 50% 18 214729 2316 38%
c i 30.45 1485 21 2  40 2115 1225 51% 18 214729 2315 38%
c i 30.54 1485 22 2  40 2191 1270 51% 19 214729 2314 38%
c i 30.60 1485 23 2  40 2331 1359 51% 20 214729 2313 38%
c i 30.61 1485 23 2  40 2382 1398 51% 20 214729 2312 38%
c i 30.62 1485 23 2  40 2383 1398 51% 20 214729 2311 38%
c 
c  seconds    reductions  redundant   irredundant
c          MB     restarts       trail       variables
c            level   conflicts       glue         remaining
c 
c - 30.92 1378 23 3  40 2468 1079 51% 20 214711 2311 38%
c ] 31.78 1378 23 3  40 3000 1355 51% 19 214711 2311 38%
c { 31.78 1378 66 3  40 3000 1355 80% 22 214711 2311 38%
c F 31.82 1378 66 3  40 3004 1359 80% 22 214711 2311 38%
c i 32.26 1378 63 3  41 3132 1431 76% 21 214711 2310 38%
c i 32.88 1378 64 3  71 3266 1541 73% 23 214711 2309 37%
c i 33.21 1378 64 3  86 3327 1595 71% 24 214711 2308 37%
c i 33.22 1378 64 3  88 3334 1599 71% 24 214711 2307 37%
c i 33.33 1378 64 3  92 3351 1613 71% 24 214711 2306 37%
c i 33.54 1378 65 3  98 3373 1633 71% 24 214711 2305 37%
c i 33.56 1378 65 3 100 3380 1638 71% 24 214711 2304 37%
c i 33.77 1378 65 3 109 3417 1669 70% 25 214711 2303 37%
c i 33.90 1378 65 3 116 3446 1694 70% 25 214711 2302 37%
c i 34.01 1378 66 3 124 3487 1725 69% 26 214711 2301 37%
c i 34.02 1378 66 3 125 3491 1728 69% 26 214711 2300 37%
c i 34.74 1378 65 3 166 3672 1876 67% 27 214711 2299 37%
c i 34.76 1378 65 3 166 3674 1877 67% 27 214711 2298 37%
c i 35.11 1377 65 3 187 3771 1957 66% 27 214711 2297 37%
c i 35.29 1377 66 3 199 3816 1999 65% 28 214711 2296 37%
c - 35.98 1483 62 4 216 4068 1604 63% 28 214666 2296 37%
c 
c  seconds    reductions  redundant   irredundant
c          MB     restarts       trail       variables
c            level   conflicts       glue         remaining
c 
c i 36.05 1483 61 4 216 4125 1649 62% 28 214666 2295 37%
c i 36.21 1483 53 4 216 4808 2097 59% 26 214666 2294 37%
c d 36.61 1483 51 4 216 5000 2211 58% 26 177362 2281 37%
c 3 36.63 1483 51 4 216 5000 3349 58% 26 177362 2281 37%
c 2 36.67 1483 51 4 216 5000 3433 58% 26 177362 2263 37%
c p 39.10 1483 51 4 216 5000 10207 58% 26 177362 2154 35%
c d 39.42 1483 51 4 216 5000 9152 58% 26 151837 2152 35%
c d 39.47 1483 51 4 216 5000 9152 58% 26 151833 2150 35%
c # 39.76 1483 44 4 216 6005 9801 56% 24 151833 2150 35%
c - 40.00 1380 43 5 216 6065 2303 56% 24 151833 2150 35%
c } 40.40 1380 39 5 216 7000 3009 55% 22 151833 2150 35%
c [ 40.40 1380 23 5 216 7000 3009 51% 19 151833 2150 35%
c - 40.75 1380 23 6 217 8191 2514 51% 20 151833 2150 35%
c I 41.50 1380 24 6 218 10006 3727 51% 21 151833 2150 35%
c - 42.17 1380 37 7 219 10674 2989 50% 30 151833 2150 35%
c - 43.62 1380 67 8 221 13510 3720 48% 53 151833 2150 35%
c ] 44.54 1380 75 8 221 15003 4949 47% 60 151833 2150 35%
c { 44.54 1380 39 8 221 15003 4949 55% 22 151833 2150 35%
c 2 44.58 1380 39 8 221 15003 6319 55% 22 151832 2150 35%
c p 47.98 1380 39 8 221 15003 11520 55% 22 151832 2143 35%
c 
c  seconds    reductions    redundant   irredundant
c          MB     restarts         trail       variables
c            level    conflicts        glue         remaining
c 
c B 48.09 1380 39 8 221 15007 11524 55% 22 151832 2143 35%
c } 48.52 1380 39 8 268 15229 11701 54% 23 151832 2143 35%
c 1 48.52 1380 39 8 268 15229 11701 54% 23 151832 2143 35%
c 
c --- [ writing output ] -----------------------------------------------------
c 
c writing simplified CNF to DIMACS file 'simp/33.cubes2295.adj.simp1'
c * 48.52 1380 39 8 268 15229 11701 54% 23 151832 2143 35%
c opening file to write 'simp/33.cubes2295.adj.simp1'
c writing 'p cnf 6160 151811' header
c closing file 'simp/33.cubes2295.adj.simp1'
c after writing 75080738 bytes 71.6 MB
c wrote 151811 clauses in 0.47 seconds process time
c 
c --- [ writing extension ] --------------------------------------------------
c 
c writing extension stack to 'simp/33.cubes2295.adj.ext1'
c opening file to write 'simp/33.cubes2295.adj.ext1'
c closing file 'simp/33.cubes2295.adj.ext1'
c after writing 13291 bytes 0.0 MB
c wrote 890 witnesses in 0.00 seconds process time
c 
c --- [ result ] -------------------------------------------------------------
c 
s SATISFIABLE
c 
c --- [ run-time profiling ] -------------------------------------------------
c 
c process time taken by individual solving procedures
c (percentage relative to process time for solving)
c 
c        24.38   78.52% search
c        17.47   56.26% parse
c        16.00   51.54% unstable
c         7.85   25.29% stable
c         6.67   21.48% simplify
c         5.83   18.78% probe
c         0.52    1.69% lucky
c         0.06    0.18% ternary
c   =================================
c        31.05   63.38% solve
c 
c last line shows process time for solving
c (percentage relative to total process time)
c 
c --- [ statistics ] ---------------------------------------------------------
c 
c chronological:              2678        17.58 %  of conflicts
c conflicts:                 15229       490.48    per second
c decisions:                 41093      1323.49    per second
c fixed:                       856        13.90 %  of all variables
c learned:                   14940        98.10 %  per conflict
c learned_lits:            2911230       100.00 %  learned literals
c minimized:                     0         0.00 %  learned literals
c shrunken:                1808197        62.11 %  learned literals
c minishrunken:             133232         4.58 %  learned literals
c propagations:            2418724         0.08 M  per second
c reduced:                    5865        38.51 %  per conflict
c rephased:                      5      3045.80    interval
c restarts:                    268        56.82    interval
c stabilizing:                   2        65.68 %  of conflicts
c substituted:                  17         0.28 %  of all variables
c subsumed:                   3879         0.12 %  of all clauses
c ternary:                    2604         0.63 %  of resolved
c weakened:                     34         2.00    average size
c 
c seconds are measured in process time for solving
c 
c --- [ resources ] ----------------------------------------------------------
c 
c total process time since initialization:        48.99    seconds
c total real time since initialization:           49.28    seconds
c maximum resident set size of process:         1682.19    MB
c 
c --- [ shutting down ] ------------------------------------------------------
c 
c exit 10
WARNING! DIMACS header mismatch: wrong number of variables.
============================[ Problem Statistics ]=============================
|                                                                             |
|  Number of variables:          6120                                         |
|  Number of clauses:          151819                                         |
|  Parse time:                   1.04 s                                       |
|  Simplification time:          0.03 s                                       |
|                                                                             |
============================[ Search Statistics ]====================================================
| Conflicts |          ORIGINAL         |          LEARNT          | Num Sols |      SUBGRAPHS      |
|           |    Vars  Clauses Literals |    Limit  Clauses Lit/Cl |          | Canonical Noncanon. |
=====================================================================================================
|       409 |    6025   152128 15918979 |     2000      409     21 |        0 |        69       309 |
|      1503 |    6002   153072 15929425 |     2000     1501     16 |        0 |       188      1253 |
|      1755 |    5999   153099 15930136 |     2000     1750     26 |        0 |       197      1280 |
|      2096 |    5998   153103 15930172 |     3597     1093     17 |        0 |       198      1284 |
|      2622 |    5997   153123 15930607 |     3597     1618     44 |        0 |       204      1304 |
|      3503 |    5997   153245 15932427 |     3597     2499     59 |        0 |       226      1426 |
|      5006 |    5997   153609 15937244 |     5002     2208     22 |        0 |       290      1790 |
|      6779 |    5997   153674 15938186 |     5002     3981     50 |        0 |       350      1855 |
|     10249 |    5997   154582 15948876 |     6307     4956     37 |        0 |       463      2763 |
|     14970 |    5935   155458 15956185 |     7556     6525     39 |        0 |       517      3640 |
|     20877 |    5935   155599 15957944 |     8781     8658     49 |        0 |       570      3781 |
|     30412 |    5922   156485 15967368 |    11201     8813     39 |        0 |       703      4667 |
|     43627 |    5922   156726 15970273 |    13612    10239     38 |        0 |       760      4908 |
|     63561 |    5858   157199 15975766 |    16011    15972     38 |        0 |       843      5381 |
|     93043 |    5857   157489 15980530 |    20808     9851     17 |        0 |       979      5671 |
|    137189 |    5856   157846 15985198 |    24408    20997     37 |        0 |      1053      6028 |
|    203258 |    5844    84450  9019174 |    30018    19676     37 |        0 |      1114      6413 |
=====================================================================================================
Number of solutions   : 0
Canonical subgraphs   : 1145           (17 /sec)
          order  3    : 1              (200000 /sec)
          order  4    : 1              (500000 /sec)
          order  5    : 1              (250000 /sec)
          order  6    : 1              (50000 /sec)
          order  7    : 1              (8000 /sec)
          order  8    : 2              (1250 /sec)
          order  9    : 2              (379 /sec)
          order 10    : 2              (221 /sec)
          order 11    : 7              (118 /sec)
          order 12    : 23             (77 /sec)
          order 13    : 92             (49 /sec)
          order 14    : 251            (33 /sec)
          order 15    : 246            (23 /sec)
          order 16    : 116            (18 /sec)
          order 17    : 146            (12 /sec)
          order 18    : 207            (9 /sec)
          order 19    : 39             (7 /sec)
          order 20    : 7              (7 /sec)
          order 21    : 0              (-nan /sec)
          order 22    : 0              (-nan /sec)
Noncanonical subgraphs: 6460           (300 /sec)
          order  3    : 0              (-nan /sec)
          order  4    : 0              (-nan /sec)
          order  5    : 0              (-nan /sec)
          order  6    : 0              (-nan /sec)
          order  7    : 0              (-nan /sec)
          order  8    : 0              (-nan /sec)
          order  9    : 0              (-nan /sec)
          order 10    : 0              (-nan /sec)
          order 11    : 0              (-nan /sec)
          order 12    : 0              (-nan /sec)
          order 13    : 330            (14774 /sec)
          order 14    : 595            (9031 /sec)
          order 15    : 3509           (1125 /sec)
          order 16    : 375            (956 /sec)
          order 17    : 569            (329 /sec)
          order 18    : 1067           (68 /sec)
          order 19    : 15             (35 /sec)
          order 20    : 0              (-nan /sec)
          order 21    : 0              (-nan /sec)
Canonicity checking   : 68.5147 s
Noncanonicity checking: 21.5 s
Total canonicity time : 90.0147 s
database reductions   : 24
restarts              : 511
conflicts             : 223072         (1472 /sec)
decisions             : 303121         (0.00 % random) (2001 /sec)
propagations          : 19509179       (128766 /sec)
conflict literals     : 14635706       (56.77 % deleted)
actual reward         : 0.136447
Memory used           : 224.00 MB
CPU time              : 151.509 s

UNSATISFIABLE
